Route #1: 87 42 14 38 43 15 57 2
Route #2: 69 70 30 32 66 20 1
Route #3: 51 9 71 65 35 34 78 77
Route #4: 68 29 24 55 25 4 54 80
Route #5: 21 72 75 22 41 73 40 0 92 98 44 86 16 61 6 0 94 95 97 13 58 0 96 93 85 91 100 37
Route #6: 47 36 49 64 63 90 10 0 89 60 83 5 99 59
Route #7: 76 3 79 81 33 50 0 74 23 67 39 56
Route #8: 52 7 19 11 62 88 31 0 27 28 12 26 53 0 18 82 48 46 8 45 17 84
Cost: 11750
Optimal: True
